%%%mzn-stat: initTime=0.040958057
%%%mzn-stat: objective=1093
%%%mzn-stat: nodes=48130
%%%mzn-stat: restarts=54
%%%mzn-stat: peakDepth=388
%%%mzn-stat: solveTime=5.768489414
%%%mzn-stat: variables=824
%%%mzn-stat: propagators=1807
%%%mzn-stat: failures=30458
%%%mzn-stat: propagations=7432886
%%%mzn-stat: nogoods=30458
%%%mzn-stat: AverageConflictSize=12.417689933679165
%%%mzn-stat: NumUnitNogoodsLearned=208
%%%mzn-stat: AverageLearnedNogoodLength=36.85087661698076
%%%mzn-stat: AverageBacktrackAmount=0
%%%mzn-stat: AverageLbd=13.275526955151356
%%%mzn-stat-end
maxleg = 1093;
succ = array1d(1..50,[36, 12, 40, 20, 22, 32, 5, 48, 18, 23, 13, 14, 44, 4, 47, 25, 9, 11, 28, 46, 43, 1, 34, 39, 37, 27, 10, 41, 7, 19, 2, 45, 29, 6, 15, 50, 33, 24, 49, 31, 21, 26, 17, 3, 16, 42, 38, 30, 8, 35]);
% time elapsed: 9.56 s
----------
%%%mzn-stat: initTime=0.040958057
%%%mzn-stat: objective=317
%%%mzn-stat: nodes=82801
%%%mzn-stat: restarts=59
%%%mzn-stat: peakDepth=422
%%%mzn-stat: solveTime=11.586741873
%%%mzn-stat: variables=824
%%%mzn-stat: propagators=1807
%%%mzn-stat: failures=58328
%%%mzn-stat: propagations=14901075
%%%mzn-stat: nogoods=58328
%%%mzn-stat: AverageConflictSize=13.613564668769715
%%%mzn-stat: NumUnitNogoodsLearned=208
%%%mzn-stat: AverageLearnedNogoodLength=31.08381909203127
%%%mzn-stat: AverageBacktrackAmount=0
%%%mzn-stat: AverageLbd=12.119068029076944
%%%mzn-stat-end
maxleg = 317;
succ = array1d(1..50,[36, 14, 40, 31, 25, 32, 5, 48, 13, 23, 16, 3, 21, 4, 47, 7, 9, 11, 28, 15, 18, 1, 27, 39, 37, 34, 12, 41, 46, 19, 26, 45, 29, 6, 20, 50, 33, 24, 49, 44, 43, 10, 17, 2, 22, 42, 38, 30, 8, 35]);
% time elapsed: 15.37 s
----------
%%%mzn-stat: initTime=0.040958057
%%%mzn-stat: objective=303
%%%mzn-stat: nodes=85824
%%%mzn-stat: restarts=61
%%%mzn-stat: peakDepth=437
%%%mzn-stat: solveTime=11.857986088
%%%mzn-stat: variables=824
%%%mzn-stat: propagators=1807
%%%mzn-stat: failures=60019
%%%mzn-stat: propagations=15322612
%%%mzn-stat: nogoods=60019
%%%mzn-stat: AverageConflictSize=13.477515453439745
%%%mzn-stat: NumUnitNogoodsLearned=208
%%%mzn-stat: AverageLearnedNogoodLength=30.916759692763957
%%%mzn-stat: AverageBacktrackAmount=0
%%%mzn-stat: AverageLbd=12.114180509505323
%%%mzn-stat-end
maxleg = 303;
succ = array1d(1..50,[36, 14, 40, 31, 22, 32, 5, 48, 13, 23, 25, 3, 21, 4, 47, 7, 9, 11, 28, 15, 18, 1, 27, 39, 37, 34, 12, 41, 46, 19, 26, 45, 29, 6, 20, 50, 33, 24, 49, 44, 43, 10, 17, 2, 16, 42, 38, 30, 8, 35]);
% time elapsed: 15.65 s
----------
%%%mzn-stat: initTime=0.040958057
%%%mzn-stat: objective=302
%%%mzn-stat: nodes=86458
%%%mzn-stat: restarts=62
%%%mzn-stat: peakDepth=437
%%%mzn-stat: solveTime=11.882207886
%%%mzn-stat: variables=824
%%%mzn-stat: propagators=1807
%%%mzn-stat: failures=60115
%%%mzn-stat: propagations=15349261
%%%mzn-stat: nogoods=60115
%%%mzn-stat: AverageConflictSize=13.477251933793562
%%%mzn-stat: NumUnitNogoodsLearned=208
%%%mzn-stat: AverageLearnedNogoodLength=30.930100640439157
%%%mzn-stat: AverageBacktrackAmount=0
%%%mzn-stat: AverageLbd=12.116676370290277
%%%mzn-stat-end
maxleg = 302;
succ = array1d(1..50,[36, 14, 40, 31, 22, 32, 5, 20, 13, 23, 25, 3, 21, 4, 49, 7, 9, 11, 28, 15, 18, 1, 27, 39, 37, 34, 12, 41, 46, 38, 26, 45, 29, 6, 8, 50, 33, 19, 47, 44, 43, 10, 17, 2, 16, 42, 48, 30, 24, 35]);
% time elapsed: 15.67 s
----------
%%%mzn-stat: initTime=0.040958057
%%%mzn-stat: objective=301
%%%mzn-stat: nodes=87133
%%%mzn-stat: restarts=63
%%%mzn-stat: peakDepth=456
%%%mzn-stat: solveTime=11.909256793
%%%mzn-stat: variables=824
%%%mzn-stat: propagators=1807
%%%mzn-stat: failures=60212
%%%mzn-stat: propagations=15377042
%%%mzn-stat: nogoods=60212
%%%mzn-stat: AverageConflictSize=13.481050288978942
%%%mzn-stat: NumUnitNogoodsLearned=208
%%%mzn-stat: AverageLearnedNogoodLength=30.94570849664519
%%%mzn-stat: AverageBacktrackAmount=0
%%%mzn-stat: AverageLbd=12.118913173453796
%%%mzn-stat-end
maxleg = 301;
succ = array1d(1..50,[36, 14, 40, 31, 22, 32, 5, 20, 13, 23, 25, 3, 21, 4, 48, 7, 9, 11, 28, 24, 18, 1, 27, 39, 37, 34, 12, 41, 46, 38, 26, 45, 29, 6, 8, 50, 33, 19, 47, 44, 43, 10, 17, 2, 16, 42, 49, 30, 15, 35]);
% time elapsed: 15.70 s
----------
%%%mzn-stat: initTime=0.040958057
%%%mzn-stat: objective=300
%%%mzn-stat: nodes=87858
%%%mzn-stat: restarts=64
%%%mzn-stat: peakDepth=456
%%%mzn-stat: solveTime=11.947234906
%%%mzn-stat: variables=824
%%%mzn-stat: propagators=1807
%%%mzn-stat: failures=60379
%%%mzn-stat: propagations=15426792
%%%mzn-stat: nogoods=60379
%%%mzn-stat: AverageConflictSize=13.486029911061793
%%%mzn-stat: NumUnitNogoodsLearned=208
%%%mzn-stat: AverageLearnedNogoodLength=30.97451100548204
%%%mzn-stat: AverageBacktrackAmount=0
%%%mzn-stat: AverageLbd=12.122211364878517
%%%mzn-stat-end
maxleg = 300;
succ = array1d(1..50,[36, 14, 40, 31, 22, 32, 5, 20, 13, 23, 25, 3, 21, 4, 48, 7, 9, 11, 28, 24, 18, 1, 27, 39, 37, 34, 12, 41, 46, 38, 26, 45, 29, 6, 8, 50, 33, 19, 47, 44, 43, 10, 17, 2, 16, 42, 49, 30, 15, 35]);
% time elapsed: 15.74 s
----------
%%%mzn-stat: initTime=0.040958057
%%%mzn-stat: objective=299
%%%mzn-stat: nodes=88671
%%%mzn-stat: restarts=65
%%%mzn-stat: peakDepth=456
%%%mzn-stat: solveTime=11.995152926
%%%mzn-stat: variables=824
%%%mzn-stat: propagators=1807
%%%mzn-stat: failures=60611
%%%mzn-stat: propagations=15485024
%%%mzn-stat: nogoods=60611
%%%mzn-stat: AverageConflictSize=13.4735444061309
%%%mzn-stat: NumUnitNogoodsLearned=208
%%%mzn-stat: AverageLearnedNogoodLength=31.008975268515616
%%%mzn-stat: AverageBacktrackAmount=0
%%%mzn-stat: AverageLbd=12.125670257873983
%%%mzn-stat-end
maxleg = 299;
succ = array1d(1..50,[36, 14, 40, 31, 22, 32, 5, 20, 13, 23, 25, 3, 21, 4, 48, 7, 9, 11, 28, 24, 18, 1, 27, 39, 37, 34, 12, 41, 46, 38, 26, 45, 29, 6, 8, 50, 33, 19, 47, 44, 43, 10, 17, 2, 16, 42, 49, 30, 15, 35]);
% time elapsed: 15.79 s
----------
=====ERROR=====
% time elapsed: 1800.34 s
